(set-logic ALL)
(declare-fun i1 () Int)
(declare-fun it284 () Int)
(declare-fun it285 () Int)
(declare-fun i2 () Int)
(declare-fun i3 () Int)
(declare-fun it286 () Int)
(declare-fun it287 () Int)
(declare-fun i4 () Int)
(declare-fun it288 () Int)
(declare-fun i5 () Int)
(declare-fun it289 () Int)
(declare-fun i6 () Int)
(declare-fun i7 () Int)
(declare-fun it290 () Int)
(declare-fun it508 () Int)
(declare-fun it509 () Int)
(declare-fun it510 () Int)
(declare-fun it511 () Int)
(declare-fun it512 () Int)
(declare-fun it513 () Int)
(declare-fun it514 () Int)
(declare-fun it200 () Int)
(assert (= (+ i1 (- 1)) 0))
(assert (= (+ it284 (- 2)) 0))
(assert (= (+ (* i2 (- 1)) it285 (- 1)) 0))
(assert (= (+ it286 (* i3 (- 1))) 0))
(assert (= (+ (* i4 (- 1)) it287) 0))
(assert (= (+ (* i5 (- 1)) it288) 0))
(assert (= (+ (* i6 (- 1)) it289) 0))
(assert (= (+ it290 (* i7 (- 1))) 0))
(assert (and (> it286 0)
     (= (+ it284 (- 2)) 0)
     (<= (+ (* it289 (- 1)) (- 5)) 0)
     (<= (+ it289 (- 5)) 0)))
(assert (= (+ it508 (- 3)) 0))
(assert (= (+ it509 (* it285 (- 1)) (- 2)) 0))
(assert (= (+ (* it286 (- 1)) it510) 0))
(assert (= (+ (* it286 (- 1)) it511) 0))
(assert (= (+ (* it290 (- 1)) it512) 0))
(assert (= (+ it513 (* it289 (- 1))) 0))
(assert (= (+ (* it290 (- 1)) it514) 0))
(assert (let ((a!1 (* (* (exp it513 3) (exp 9 (+ it200 (- 1)))) (+ 0 (- 3))))
      (a!2 (* (* (exp 9 (+ it200 (- 1))) (+ 0 it512)) (+ 0 3)))
      (a!3 (* (exp it511 2) (exp (exp 4 (+ it200 (- 1))) (+ 0 2))))
      (a!5 (* (* (exp it513 3) (exp 9 (+ it200 (- 1)))) (+ 0 (- 1))))
      (a!7 (> (+ (* (exp it513 5) (+ 0 (- 1)))
                 (* (exp it511 2) (+ 0 (- 1)))
                 (+ 0 it512))
              (+ 0 0))))
(let ((a!4 (> (+ (* (exp it513 5) (+ 0 (- 1)))
                 a!1
                 a!2
                 (exp it513 3)
                 (* a!3 (+ 0 (- 4))))
              (+ 0 0)))
      (a!6 (+ (* (exp it513 5) (+ 0 (- 1)))
              a!5
              (* (exp 9 (+ it200 (- 1))) (+ 0 it512))
              (exp it513 3)
              (* a!3 (+ 0 (- 1))))))
  (and a!4
       (>= (+ it508 (- 3)) 0)
       (>= (+ (* it508 (- 1)) 3) 0)
       (> (* it511 (- 2)) 0)
       (> a!6 (+ 0 0))
       a!7
       (> (* it511 (- 1)) 0)
       (>= (+ it200 (- 1)) 0)))))
(check-sat)
